(declare-fun var0 () String)
(assert (str.in.re var0 (re.++ (re.+ (re.* (str.to.re "n"))) (re.++ (re.union (re.* (str.to.re "kkk")) (re.union (str.to.re "l") (str.to.re "m"))) (re.++ (re.* (re.union (str.to.re "iii") (str.to.re "jjj"))) (re.++ (re.+ (re.* (str.to.re "hh"))) (re.++ (re.+ (re.union (str.to.re "fff") (str.to.re "ggg"))) (re.++ (re.union (re.union (str.to.re "cc") (str.to.re "ddd")) (re.* (str.to.re "eee"))) (re.++ (re.+ (re.union (str.to.re "aa") (str.to.re "b"))) (re.++ (re.* (re.union (str.to.re "88") (str.to.re "99"))) (re.++ (re.+ (re.* (str.to.re "77"))) (re.++ (re.union (re.union (str.to.re "44") (str.to.re "55")) (re.+ (str.to.re "6"))) (re.++ (re.union (re.+ (str.to.re "222")) (re.+ (str.to.re "3"))) (re.++ (re.+ (re.* (str.to.re "1"))) (re.++ (re.union (re.+ (str.to.re "~")) (re.* (str.to.re "00"))) (re.++ (re.+ (re.* (str.to.re "}}"))) (re.++ (re.+ (re.union (str.to.re "{{{") (str.to.re "||"))) (re.++ (re.+ (re.union (str.to.re "___") (str.to.re "``"))) (re.++ (re.* (re.* (str.to.re "^^^"))) (re.++ (re.union (re.union (str.to.re "[[") (str.to.re "\\\\\\")) (re.+ (str.to.re "]"))) (re.++ (re.+ (re.union (str.to.re "??") (str.to.re "@@"))) (re.++ (re.+ (re.union (str.to.re "===") (str.to.re ">"))) (re.++ (re.* (re.union (str.to.re ";;;") (str.to.re "<<"))) (re.++ (re.+ (re.* (str.to.re "::"))) (re.++ (re.+ (re.+ (str.to.re "///"))) (re.++ (re.union (re.* (str.to.re "-")) (re.* (str.to.re "..."))) (re.++ (re.union (re.union (str.to.re ")") (str.to.re "**")) (re.union (str.to.re "++") (str.to.re ",,"))) (re.++ (re.union (re.union (str.to.re "&&&") (str.to.re "'''")) (re.+ (str.to.re "((("))) (re.++ (re.* (re.+ (str.to.re "%"))) (re.++ (re.union (re.union (str.to.re "!!") (str.to.re """""""")) (re.union (str.to.re "#") (str.to.re "$"))) (re.++ (re.* (re.union (str.to.re "Y") (str.to.re "Z"))) (re.++ (re.union (re.union (str.to.re "V") (str.to.re "W")) (re.+ (str.to.re "XX"))) (re.++ (re.* (re.union (str.to.re "TTT") (str.to.re "UU"))) (re.++ (re.+ (re.union (str.to.re "R") (str.to.re "S"))) (re.++ (re.union (re.+ (str.to.re "PP")) (re.+ (str.to.re "QQ"))) (re.++ (re.* (re.union (str.to.re "NNN") (str.to.re "OOO"))) (re.++ (re.* (re.union (str.to.re "L") (str.to.re "MMM"))) (re.++ (re.* (re.union (str.to.re "JJJ") (str.to.re "KK"))) (re.++ (re.* (re.union (str.to.re "HHH") (str.to.re "II"))) (re.++ (re.union (re.union (str.to.re "EE") (str.to.re "FFF")) (re.* (str.to.re "G"))) (re.++ (re.* (re.* (str.to.re "DDD"))) (re.++ (re.* (re.* (str.to.re "C"))) (re.++ (re.+ (re.union (str.to.re "A") (str.to.re "BBB"))) (re.++ (re.* (re.* (str.to.re "zz"))) (re.++ (re.union (re.+ (str.to.re "xx")) (re.* (str.to.re "yy"))) (re.++ (re.+ (re.union (str.to.re "vvv") (str.to.re "w"))) (re.++ (re.+ (re.* (str.to.re "uu"))) (re.++ (re.* (re.* (str.to.re "tt"))) (re.++ (re.+ (re.+ (str.to.re "sss"))) (re.++ (re.* (re.union (str.to.re "qqq") (str.to.re "rrr"))) (re.++ (re.* (re.union (str.to.re "oo") (str.to.re "pp"))) (re.++ (re.* (re.+ (str.to.re "nn"))) (re.++ (re.+ (re.* (str.to.re "m"))) (re.++ (re.* (re.+ (str.to.re "l"))) (re.++ (re.+ (re.* (str.to.re "kk"))) (re.++ (re.* (re.* (str.to.re "jjj"))) (re.++ (re.union (re.union (str.to.re "gg") (str.to.re "hhh")) (re.* (str.to.re "i"))) (re.++ (re.+ (re.* (str.to.re "ff"))) (re.++ (re.* (re.* (str.to.re "eee"))) (re.++ (re.union (re.* (str.to.re "bbb")) (re.union (str.to.re "ccc") (str.to.re "ddd"))) (re.++ (re.+ (re.+ (str.to.re "aa"))) (re.++ (re.+ (re.union (str.to.re "888") (str.to.re "9"))) (re.++ (re.union (re.union (str.to.re "444") (str.to.re "5")) (re.union (str.to.re "66") (str.to.re "777"))) (re.++ (re.+ (re.union (str.to.re "22") (str.to.re "3"))) (re.++ (re.* (re.* (str.to.re "1"))) (re.* (re.+ (str.to.re "000"))))))))))))))))))))))))))))))))))))))))))))))))))))))))))))))))))))
(check-sat)